(set-info :smt-lib-version 2.6)
(set-logic QF_NIA)
(set-info :source |
Generated by: Cristina Borralleras, Daniel Larraz, Albert Oliveras, Enric Rodriguez-Carbonell, Albert Rubio
Generated on: 2017-04-27
Generator: VeryMax
Application: Termination proving
Target solver: barcelogic
|)
(set-info :license "https://creativecommons.org/licenses/by/4.0/")
(set-info :category "industrial")
(set-info :status unsat)
(declare-fun Nl2arg11 () Int)
(declare-fun Nl2arg21 () Int)
(declare-fun lam0n0 () Int)
(declare-fun lam0n2 () Int)
(declare-fun lam0n1 () Int)
(declare-fun Nl2CT1 () Int)
(declare-fun lam1n0 () Int)
(declare-fun lam1n2 () Int)
(declare-fun lam1n1 () Int)
(declare-fun lam2n0 () Int)
(declare-fun lam2n1 () Int)
(declare-fun lam2n2 () Int)
(declare-fun lam2n4 () Int)
(declare-fun lam2n3 () Int)
(declare-fun lam3n0 () Int)
(declare-fun lam3n1 () Int)
(declare-fun lam3n2 () Int)
(declare-fun lam3n4 () Int)
(declare-fun lam3n3 () Int)
(declare-fun lam4n0 () Int)
(declare-fun lam4n1 () Int)
(declare-fun lam4n2 () Int)
(declare-fun lam4n4 () Int)
(declare-fun lam4n3 () Int)
(declare-fun lam5n0 () Int)
(declare-fun lam5n1 () Int)
(declare-fun lam5n2 () Int)
(declare-fun lam5n4 () Int)
(declare-fun lam5n3 () Int)
(declare-fun lam6n0 () Int)
(declare-fun lam6n2 () Int)
(declare-fun lam6n1 () Int)
(declare-fun lam7n0 () Int)
(declare-fun lam7n2 () Int)
(declare-fun lam7n1 () Int)
(declare-fun lam10n0 () Int)
(declare-fun lam10n2 () Int)
(declare-fun lam10n1 () Int)
(declare-fun RFN1_CT () Int)
(declare-fun RFN1_arg1 () Int)
(declare-fun RFN1_arg2 () Int)
(declare-fun lam13n0 () Int)
(declare-fun lam13n1 () Int)
(declare-fun lam13n2 () Int)
(declare-fun lam13n4 () Int)
(declare-fun lam13n3 () Int)
(declare-fun lam16n0 () Int)
(declare-fun lam16n1 () Int)
(declare-fun lam16n2 () Int)
(declare-fun lam16n4 () Int)
(declare-fun lam16n3 () Int)
(declare-fun lam19n0 () Int)
(declare-fun lam19n2 () Int)
(declare-fun lam19n1 () Int)
(declare-fun lam11n0 () Int)
(declare-fun lam11n1 () Int)
(declare-fun lam11n2 () Int)
(declare-fun lam11n4 () Int)
(declare-fun lam11n3 () Int)
(declare-fun lam12n0 () Int)
(declare-fun lam12n1 () Int)
(declare-fun lam12n2 () Int)
(declare-fun lam12n4 () Int)
(declare-fun lam12n3 () Int)
(declare-fun lam20n0 () Int)
(declare-fun lam20n1 () Int)
(declare-fun lam20n2 () Int)
(declare-fun lam20n4 () Int)
(declare-fun lam20n3 () Int)
(assert ( and ( <= ( - 9 ) Nl2arg11 ) ( <= Nl2arg11 9 ) ( <= ( - 9 ) Nl2arg21 ) ( <= Nl2arg21 9 ) ))
(assert ( or ( and ( >= lam0n0 0 ) ( >= lam0n2 0 ) ( > ( + ( * ( - 9 ) lam0n0 ) ( * ( - 1 ) lam0n1 ) ( * Nl2CT1 lam0n2 ) ( - 1 ) ) 0 ) ( = ( + ( * ( - 1 ) lam0n0 ) ( * Nl2arg11 lam0n2 ) ) 0 ) ( = ( + ( * 1 lam0n0 ) ( * 1 lam0n1 ) ( * Nl2arg21 lam0n2 ) ) 0 ) ) ( and ( >= lam1n0 0 ) ( >= lam1n2 0 ) ( > ( + ( * ( - 9 ) lam1n0 ) ( * ( - 1 ) lam1n1 ) ( * Nl2CT1 lam1n2 ) ( - 1 ( + ( + Nl2CT1 ( * Nl2arg11 1 ) ) ( * Nl2arg21 2 ) ) ) ) 0 ) ( = ( + ( * ( - 1 ) lam1n0 ) ( * Nl2arg11 lam1n2 ) ) 0 ) ( = ( + ( * 1 lam1n0 ) ( * 1 lam1n1 ) ( * Nl2arg21 lam1n2 ) ) 0 ) ) ))
(assert ( or ( and ( >= lam2n0 0 ) ( >= lam2n1 0 ) ( >= lam2n2 0 ) ( >= lam2n4 0 ) ( > ( + ( * 2 lam2n0 ) ( * ( - 9 ) lam2n1 ) ( * ( - 9 ) lam2n2 ) ( * ( - 1 ) lam2n3 ) ( * Nl2CT1 lam2n4 ) ( - 1 ) ) 0 ) ( = ( + ( * ( - 1 ) lam2n1 ) ( * 1 lam2n3 ) ( * Nl2arg11 lam2n4 ) ) 0 ) ( = ( + ( * ( - 1 ) lam2n0 ) ( * 1 lam2n1 ) ( * 1 lam2n2 ) ( * Nl2arg21 lam2n4 ) ) 0 ) ) ( and ( >= lam3n0 0 ) ( >= lam3n1 0 ) ( >= lam3n2 0 ) ( >= lam3n4 0 ) ( > ( + ( * 2 lam3n0 ) ( * ( - 9 ) lam3n1 ) ( * ( - 9 ) lam3n2 ) ( * ( - 1 ) lam3n3 ) ( * Nl2CT1 lam3n4 ) ( - 1 ( + ( + Nl2CT1 ( * Nl2arg11 1 ) ) ( * Nl2arg21 1 ) ) ) ) 0 ) ( = ( + ( * ( - 1 ) lam3n1 ) ( * 1 lam3n3 ) ( * Nl2arg11 lam3n4 ) ) 0 ) ( = ( + ( * ( - 1 ) lam3n0 ) ( * 1 lam3n1 ) ( * 1 lam3n2 ) ( * Nl2arg21 lam3n4 ) ( - ( + 0 ( * Nl2arg21 1 ) ) ) ) 0 ) ) ))
(assert ( or ( and ( >= lam4n0 0 ) ( >= lam4n1 0 ) ( >= lam4n2 0 ) ( >= lam4n4 0 ) ( > ( + ( * 2 lam4n0 ) ( * ( - 9 ) lam4n1 ) ( * ( - 9 ) lam4n2 ) ( * Nl2CT1 lam4n4 ) ( - 1 ) ) 0 ) ( = ( + ( * ( - 1 ) lam4n1 ) ( * 1 lam4n3 ) ( * Nl2arg11 lam4n4 ) ) 0 ) ( = ( + ( * ( - 1 ) lam4n0 ) ( * 1 lam4n1 ) ( * 1 lam4n2 ) ( * Nl2arg21 lam4n4 ) ) 0 ) ) ( and ( >= lam5n0 0 ) ( >= lam5n1 0 ) ( >= lam5n2 0 ) ( >= lam5n4 0 ) ( > ( + ( * 2 lam5n0 ) ( * ( - 9 ) lam5n1 ) ( * ( - 9 ) lam5n2 ) ( * Nl2CT1 lam5n4 ) ( - 1 ( + ( + Nl2CT1 ( * Nl2arg11 0 ) ) ( * Nl2arg21 ( - 1 ) ) ) ) ) 0 ) ( = ( + ( * ( - 1 ) lam5n1 ) ( * 1 lam5n3 ) ( * Nl2arg11 lam5n4 ) ) 0 ) ( = ( + ( * ( - 1 ) lam5n0 ) ( * 1 lam5n1 ) ( * 1 lam5n2 ) ( * Nl2arg21 lam5n4 ) ( - ( + 0 ( * Nl2arg21 1 ) ) ) ) 0 ) ) ))
(assert ( or ( and ( >= lam6n0 0 ) ( >= lam6n2 0 ) ( > ( + ( * ( - 9 ) lam6n0 ) ( * ( - 10 ) lam6n1 ) ( * Nl2CT1 lam6n2 ) ( - 1 ) ) 0 ) ( = ( + ( * ( - 1 ) lam6n0 ) ( * Nl2arg11 lam6n2 ) ) 0 ) ( = ( + ( * 1 lam6n0 ) ( * 1 lam6n1 ) ( * Nl2arg21 lam6n2 ) ) 0 ) ) ( and ( >= lam7n0 0 ) ( >= lam7n2 0 ) ( > ( + ( * ( - 9 ) lam7n0 ) ( * ( - 10 ) lam7n1 ) ( * Nl2CT1 lam7n2 ) ( - 1 ( + ( + Nl2CT1 ( * Nl2arg11 0 ) ) ( * Nl2arg21 9 ) ) ) ) 0 ) ( = ( + ( * ( - 1 ) lam7n0 ) ( * Nl2arg11 lam7n2 ) ) 0 ) ( = ( + ( * 1 lam7n0 ) ( * 1 lam7n1 ) ( * Nl2arg21 lam7n2 ) ) 0 ) ) ))
(assert ( and ( or ( and ( >= lam0n0 0 ) ( >= lam0n2 0 ) ( > ( + ( * ( - 9 ) lam0n0 ) ( * ( - 1 ) lam0n1 ) ( * Nl2CT1 lam0n2 ) ( - 1 ) ) 0 ) ( = ( + ( * ( - 1 ) lam0n0 ) ( * Nl2arg11 lam0n2 ) ) 0 ) ( = ( + ( * 1 lam0n0 ) ( * 1 lam0n1 ) ( * Nl2arg21 lam0n2 ) ) 0 ) ) ( and ( >= lam10n0 0 ) ( >= lam10n2 0 ) ( > ( + ( * ( - 9 ) lam10n0 ) ( * ( - 1 ) lam10n1 ) ( * Nl2CT1 lam10n2 ) ( - 1 ( - ( + ( + RFN1_CT ( * RFN1_arg1 1 ) ) ( * RFN1_arg2 2 ) ) RFN1_CT ) ) ) 0 ) ( = ( + ( * ( - 1 ) lam10n0 ) ( * Nl2arg11 lam10n2 ) ( - ( - RFN1_arg1 ) ) ) 0 ) ( = ( + ( * 1 lam10n0 ) ( * 1 lam10n1 ) ( * Nl2arg21 lam10n2 ) ( - ( - RFN1_arg2 ) ) ) 0 ) ) ) ( or ( and ( >= lam2n0 0 ) ( >= lam2n1 0 ) ( >= lam2n2 0 ) ( >= lam2n4 0 ) ( > ( + ( * 2 lam2n0 ) ( * ( - 9 ) lam2n1 ) ( * ( - 9 ) lam2n2 ) ( * ( - 1 ) lam2n3 ) ( * Nl2CT1 lam2n4 ) ( - 1 ) ) 0 ) ( = ( + ( * ( - 1 ) lam2n1 ) ( * 1 lam2n3 ) ( * Nl2arg11 lam2n4 ) ) 0 ) ( = ( + ( * ( - 1 ) lam2n0 ) ( * 1 lam2n1 ) ( * 1 lam2n2 ) ( * Nl2arg21 lam2n4 ) ) 0 ) ) ( and ( >= lam13n0 0 ) ( >= lam13n1 0 ) ( >= lam13n2 0 ) ( >= lam13n4 0 ) ( > ( + ( * 2 lam13n0 ) ( * ( - 9 ) lam13n1 ) ( * ( - 9 ) lam13n2 ) ( * ( - 1 ) lam13n3 ) ( * Nl2CT1 lam13n4 ) ( - 1 ( - ( + ( + RFN1_CT ( * RFN1_arg1 1 ) ) ( * RFN1_arg2 1 ) ) RFN1_CT ) ) ) 0 ) ( = ( + ( * ( - 1 ) lam13n1 ) ( * 1 lam13n3 ) ( * Nl2arg11 lam13n4 ) ( - ( - RFN1_arg1 ) ) ) 0 ) ( = ( + ( * ( - 1 ) lam13n0 ) ( * 1 lam13n1 ) ( * 1 lam13n2 ) ( * Nl2arg21 lam13n4 ) ( - ( - ( + 0 ( * RFN1_arg2 1 ) ) RFN1_arg2 ) ) ) 0 ) ) ) ( or ( and ( >= lam4n0 0 ) ( >= lam4n1 0 ) ( >= lam4n2 0 ) ( >= lam4n4 0 ) ( > ( + ( * 2 lam4n0 ) ( * ( - 9 ) lam4n1 ) ( * ( - 9 ) lam4n2 ) ( * Nl2CT1 lam4n4 ) ( - 1 ) ) 0 ) ( = ( + ( * ( - 1 ) lam4n1 ) ( * 1 lam4n3 ) ( * Nl2arg11 lam4n4 ) ) 0 ) ( = ( + ( * ( - 1 ) lam4n0 ) ( * 1 lam4n1 ) ( * 1 lam4n2 ) ( * Nl2arg21 lam4n4 ) ) 0 ) ) ( and ( >= lam16n0 0 ) ( >= lam16n1 0 ) ( >= lam16n2 0 ) ( >= lam16n4 0 ) ( > ( + ( * 2 lam16n0 ) ( * ( - 9 ) lam16n1 ) ( * ( - 9 ) lam16n2 ) ( * Nl2CT1 lam16n4 ) ( - 1 ( - ( + ( + RFN1_CT ( * RFN1_arg1 0 ) ) ( * RFN1_arg2 ( - 1 ) ) ) RFN1_CT ) ) ) 0 ) ( = ( + ( * ( - 1 ) lam16n1 ) ( * 1 lam16n3 ) ( * Nl2arg11 lam16n4 ) ( - ( - RFN1_arg1 ) ) ) 0 ) ( = ( + ( * ( - 1 ) lam16n0 ) ( * 1 lam16n1 ) ( * 1 lam16n2 ) ( * Nl2arg21 lam16n4 ) ( - ( - ( + 0 ( * RFN1_arg2 1 ) ) RFN1_arg2 ) ) ) 0 ) ) ) ( or ( and ( >= lam6n0 0 ) ( >= lam6n2 0 ) ( > ( + ( * ( - 9 ) lam6n0 ) ( * ( - 10 ) lam6n1 ) ( * Nl2CT1 lam6n2 ) ( - 1 ) ) 0 ) ( = ( + ( * ( - 1 ) lam6n0 ) ( * Nl2arg11 lam6n2 ) ) 0 ) ( = ( + ( * 1 lam6n0 ) ( * 1 lam6n1 ) ( * Nl2arg21 lam6n2 ) ) 0 ) ) ( and ( >= lam19n0 0 ) ( >= lam19n2 0 ) ( > ( + ( * ( - 9 ) lam19n0 ) ( * ( - 10 ) lam19n1 ) ( * Nl2CT1 lam19n2 ) ( - 1 ( - ( + ( + RFN1_CT ( * RFN1_arg1 0 ) ) ( * RFN1_arg2 9 ) ) RFN1_CT ) ) ) 0 ) ( = ( + ( * ( - 1 ) lam19n0 ) ( * Nl2arg11 lam19n2 ) ( - ( - RFN1_arg1 ) ) ) 0 ) ( = ( + ( * 1 lam19n0 ) ( * 1 lam19n1 ) ( * Nl2arg21 lam19n2 ) ( - ( - RFN1_arg2 ) ) ) 0 ) ) ) ))
(assert ( and ( and ( and ( >= lam11n0 0 ) ( >= lam11n1 0 ) ( >= lam11n2 0 ) ( >= lam11n4 0 ) ( > ( + ( * 2 lam11n0 ) ( * ( - 9 ) lam11n1 ) ( * ( - 9 ) lam11n2 ) ( * ( - 1 ) lam11n3 ) ( * Nl2CT1 lam11n4 ) ( - 1 ( - RFN1_CT ) ) ) 0 ) ( = ( + ( * ( - 1 ) lam11n1 ) ( * 1 lam11n3 ) ( * Nl2arg11 lam11n4 ) ( - ( - RFN1_arg1 ) ) ) 0 ) ( = ( + ( * ( - 1 ) lam11n0 ) ( * 1 lam11n1 ) ( * 1 lam11n2 ) ( * Nl2arg21 lam11n4 ) ( - ( - RFN1_arg2 ) ) ) 0 ) ) ( and ( >= lam12n0 0 ) ( >= lam12n1 0 ) ( >= lam12n2 0 ) ( >= lam12n4 0 ) ( > ( + ( * 2 lam12n0 ) ( * ( - 9 ) lam12n1 ) ( * ( - 9 ) lam12n2 ) ( * ( - 1 ) lam12n3 ) ( * Nl2CT1 lam12n4 ) ( - 1 ( + ( - ( + ( + RFN1_CT ( * RFN1_arg1 1 ) ) ( * RFN1_arg2 1 ) ) RFN1_CT ) 1 ) ) ) 0 ) ( = ( + ( * ( - 1 ) lam12n1 ) ( * 1 lam12n3 ) ( * Nl2arg11 lam12n4 ) ( - ( - RFN1_arg1 ) ) ) 0 ) ( = ( + ( * ( - 1 ) lam12n0 ) ( * 1 lam12n1 ) ( * 1 lam12n2 ) ( * Nl2arg21 lam12n4 ) ( - ( - ( + 0 ( * RFN1_arg2 1 ) ) RFN1_arg2 ) ) ) 0 ) ) ) ( and ( >= lam20n0 0 ) ( >= lam20n1 0 ) ( >= lam20n2 0 ) ( >= lam20n4 0 ) ( > ( + ( * 2 lam20n0 ) ( * ( - 9 ) lam20n1 ) ( * ( - 9 ) lam20n2 ) ( * ( - 1 ) lam20n3 ) ( * ( + ( - Nl2CT1 ) 1 ) lam20n4 ) ( - 1 ) ) 0 ) ( = ( + ( * ( - 1 ) lam20n1 ) ( * 1 lam20n3 ) ( * ( - Nl2arg11 ) lam20n4 ) ) 0 ) ( = ( + ( * ( - 1 ) lam20n0 ) ( * 1 lam20n1 ) ( * 1 lam20n2 ) ( * ( - Nl2arg21 ) lam20n4 ) ) 0 ) ) ))
(check-sat)
(exit)
